c Created with the Wolfram Language : www.wolfram.com
c 
p edge 100 717
e 1 3
e 1 4
e 2 4
e 5 7
e 5 8
e 7 9
e 10 11
e 10 12
e 1 13
e 6 13
e 5 14
e 7 14
e 10 14
e 11 14
e 12 14
e 13 14
e 7 15
e 10 15
e 13 15
e 1 16
e 3 16
e 4 16
e 6 16
e 7 16
e 6 17
e 8 18
e 7 19
e 13 19
e 1 20
e 5 20
e 1 22
e 5 22
e 17 22
e 10 23
e 14 24
e 15 24
e 18 24
e 21 24
e 6 25
e 23 25
e 3 26
e 14 26
e 7 27
e 20 27
e 21 27
e 22 27
e 14 28
e 23 28
e 1 29
e 5 29
e 7 29
e 11 29
e 13 29
e 14 29
e 23 29
e 27 29
e 1 30
e 5 30
e 12 30
e 18 30
e 23 30
e 6 31
e 10 31
e 22 31
e 30 31
e 2 32
e 4 32
e 10 32
e 15 32
e 4 33
e 31 33
e 9 34
e 28 34
e 32 34
e 2 35
e 4 35
e 16 35
e 19 35
e 21 35
e 12 36
e 17 36
e 18 36
e 20 36
e 29 36
e 35 36
e 7 37
e 10 37
e 16 37
e 18 37
e 34 37
e 7 38
e 11 38
e 18 38
e 28 38
e 29 38
e 1 39
e 6 39
e 14 39
e 28 39
e 33 39
e 35 39
e 36 39
e 38 39
e 14 41
e 19 41
e 29 41
e 38 41
e 11 42
e 14 42
e 22 42
e 36 42
e 3 43
e 6 43
e 13 43
e 25 43
e 26 43
e 33 43
e 39 43
e 40 43
e 2 44
e 7 44
e 20 44
e 28 44
e 31 44
e 38 44
e 40 44
e 7 45
e 10 45
e 13 45
e 14 45
e 16 45
e 18 45
e 19 45
e 34 45
e 4 46
e 10 46
e 19 46
e 34 46
e 37 46
e 44 46
e 12 47
e 24 47
e 31 47
e 36 47
e 44 47
e 46 47
e 6 48
e 15 48
e 17 48
e 22 48
e 24 48
e 26 48
e 27 48
e 28 48
e 35 48
e 43 48
e 3 49
e 5 49
e 7 49
e 8 49
e 12 49
e 18 49
e 24 49
e 38 49
e 46 49
e 7 50
e 11 50
e 12 50
e 13 50
e 15 50
e 41 50
e 43 50
e 45 50
e 6 51
e 10 51
e 12 51
e 13 51
e 15 51
e 20 51
e 25 51
e 26 51
e 29 51
e 36 51
e 38 51
e 50 51
e 7 52
e 14 52
e 18 52
e 21 52
e 28 52
e 29 52
e 32 52
e 38 52
e 40 52
e 49 52
e 51 52
e 3 53
e 6 53
e 9 53
e 22 53
e 23 53
e 27 53
e 34 53
e 46 53
e 52 53
e 3 54
e 4 54
e 7 54
e 9 54
e 10 54
e 12 54
e 23 54
e 30 54
e 31 54
e 32 54
e 53 54
e 22 55
e 41 55
e 44 55
e 48 55
e 49 55
e 7 56
e 8 56
e 12 56
e 23 56
e 24 56
e 31 56
e 37 56
e 52 56
e 53 56
e 3 57
e 16 57
e 19 57
e 37 57
e 47 57
e 51 57
e 7 58
e 16 58
e 21 58
e 32 58
e 33 58
e 43 58
e 45 58
e 48 58
e 5 59
e 9 59
e 15 59
e 20 59
e 25 59
e 33 59
e 34 59
e 47 59
e 27 60
e 41 60
e 43 60
e 49 60
e 32 61
e 35 61
e 37 61
e 38 61
e 44 61
e 49 61
e 7 62
e 13 62
e 15 62
e 21 62
e 23 62
e 34 62
e 38 62
e 5 63
e 13 63
e 25 63
e 27 63
e 28 63
e 29 63
e 30 63
e 32 63
e 46 63
e 58 63
e 20 64
e 27 64
e 32 64
e 37 64
e 43 64
e 47 64
e 50 64
e 51 64
e 52 64
e 57 64
e 11 65
e 24 65
e 27 65
e 28 65
e 33 65
e 45 65
e 54 65
e 63 65
e 64 65
e 10 66
e 12 66
e 32 66
e 54 66
e 56 66
e 58 66
e 2 67
e 10 67
e 14 67
e 21 67
e 24 67
e 25 67
e 26 67
e 30 67
e 34 67
e 40 67
e 49 67
e 50 67
e 1 68
e 4 68
e 18 68
e 22 68
e 23 68
e 24 68
e 27 68
e 65 68
e 1 69
e 18 69
e 24 69
e 25 69
e 37 69
e 47 69
e 54 69
e 57 69
e 1 70
e 2 70
e 38 70
e 3 71
e 32 71
e 51 71
e 59 71
e 7 72
e 13 72
e 17 72
e 19 72
e 21 72
e 22 72
e 23 72
e 33 72
e 38 72
e 44 72
e 45 72
e 48 72
e 54 72
e 65 72
e 68 72
e 70 72
e 9 73
e 21 73
e 24 73
e 32 73
e 33 73
e 38 73
e 39 73
e 41 73
e 43 73
e 53 73
e 57 73
e 60 73
e 62 73
e 3 74
e 13 74
e 14 74
e 26 74
e 27 74
e 29 74
e 36 74
e 40 74
e 45 74
e 56 74
e 60 74
e 64 74
e 66 74
e 67 74
e 73 74
e 8 75
e 9 75
e 13 75
e 18 75
e 37 75
e 40 75
e 47 75
e 49 75
e 54 75
e 56 75
e 65 75
e 69 75
e 6 76
e 12 76
e 15 76
e 16 76
e 18 76
e 32 76
e 37 76
e 40 76
e 41 76
e 43 76
e 52 76
e 57 76
e 62 76
e 64 76
e 68 76
e 70 76
e 71 76
e 1 77
e 2 77
e 4 77
e 6 77
e 8 77
e 16 77
e 31 77
e 32 77
e 34 77
e 58 77
e 63 77
e 67 77
e 71 77
e 11 78
e 17 78
e 30 78
e 33 78
e 40 78
e 46 78
e 50 78
e 52 78
e 55 78
e 56 78
e 57 78
e 65 78
e 12 79
e 18 79
e 27 79
e 32 79
e 36 79
e 40 79
e 41 79
e 42 79
e 53 79
e 58 79
e 70 79
e 78 79
e 10 80
e 13 80
e 16 80
e 32 80
e 35 80
e 36 80
e 54 80
e 58 80
e 61 80
e 70 80
e 73 80
e 76 80
e 1 81
e 5 81
e 6 81
e 14 81
e 18 81
e 21 81
e 22 81
e 39 81
e 45 81
e 60 81
e 67 81
e 17 82
e 27 82
e 28 82
e 33 82
e 43 82
e 46 82
e 60 82
e 63 82
e 68 82
e 72 82
e 26 83
e 31 83
e 36 83
e 39 83
e 43 83
e 46 83
e 59 83
e 67 83
e 70 83
e 74 83
e 75 83
e 77 83
e 79 83
e 4 84
e 7 84
e 8 84
e 9 84
e 35 84
e 42 84
e 48 84
e 51 84
e 52 84
e 54 84
e 69 84
e 74 84
e 75 84
e 78 84
e 6 85
e 7 85
e 8 85
e 11 85
e 17 85
e 24 85
e 33 85
e 49 85
e 70 85
e 76 85
e 6 86
e 13 86
e 14 86
e 15 86
e 30 86
e 38 86
e 39 86
e 43 86
e 47 86
e 49 86
e 54 86
e 70 86
e 75 86
e 1 87
e 2 87
e 9 87
e 11 87
e 28 87
e 31 87
e 40 87
e 43 87
e 49 87
e 55 87
e 57 87
e 62 87
e 76 87
e 8 88
e 27 88
e 47 88
e 50 88
e 57 88
e 60 88
e 64 88
e 69 88
e 71 88
e 73 88
e 75 88
e 79 88
e 1 89
e 4 89
e 30 89
e 36 89
e 37 89
e 51 89
e 63 89
e 80 89
e 12 90
e 16 90
e 17 90
e 18 90
e 19 90
e 38 90
e 47 90
e 53 90
e 59 90
e 64 90
e 67 90
e 72 90
e 76 90
e 78 90
e 81 90
e 1 91
e 8 91
e 18 91
e 19 91
e 23 91
e 40 91
e 41 91
e 57 91
e 82 91
e 6 92
e 10 92
e 19 92
e 23 92
e 48 92
e 54 92
e 64 92
e 67 92
e 70 92
e 76 92
e 86 92
e 3 93
e 5 93
e 21 93
e 22 93
e 28 93
e 50 93
e 53 93
e 57 93
e 58 93
e 78 93
e 79 93
e 2 94
e 13 94
e 17 94
e 23 94
e 26 94
e 29 94
e 40 94
e 46 94
e 51 94
e 52 94
e 58 94
e 76 94
e 79 94
e 93 94
e 3 95
e 7 95
e 8 95
e 11 95
e 15 95
e 16 95
e 18 95
e 34 95
e 38 95
e 43 95
e 44 95
e 57 95
e 60 95
e 61 95
e 3 96
e 17 96
e 25 96
e 28 96
e 29 96
e 40 96
e 44 96
e 45 96
e 60 96
e 63 96
e 71 96
e 72 96
e 74 96
e 84 96
e 91 96
e 92 96
e 94 96
e 9 97
e 14 97
e 17 97
e 18 97
e 42 97
e 45 97
e 59 97
e 76 97
e 83 97
e 91 97
e 3 98
e 11 98
e 18 98
e 33 98
e 36 98
e 51 98
e 56 98
e 66 98
e 71 98
e 77 98
e 95 98
e 96 98
e 2 99
e 3 99
e 7 99
e 11 99
e 12 99
e 20 99
e 21 99
e 22 99
e 23 99
e 27 99
e 41 99
e 50 99
e 52 99
e 63 99
e 67 99
e 73 99
e 75 99
e 76 99
e 4 100
e 8 100
e 12 100
e 16 100
e 20 100
e 26 100
e 29 100
e 38 100
e 47 100
e 48 100
e 62 100
e 63 100
e 65 100
e 66 100
e 70 100
e 83 100
e 90 100
e 91 100
e 93 100
e 95 100
e 98 100
